\ This file has been generated by DOcplex
\ ENCODING=ISO-8859-1
\Problem name: random_problem.lp

Minimize
 obj: - 5 x0 + 3 x1 - 2 x2 - 6 x4 - 6 x5 + 2 x6 - x7 - 10 x8 + 3 x9 - 5 x10
      - 6 x11 + 4 x12 + 10 x13 + x14 - 5 x15 - 10 x16 + 9 x18 + 10 x20 - 4 x21
      + 5 x22 - 4 x23 - 2 x24 - 8 x25 + 3 x27 + 5 x28 - 5 x29 + x30 - 7 x31
      + 2 x32 - 9 x33 - 2 x34 + 2 x35 + 2 x36 - x37 + 8 x38 - 8 x40 + 8 x41
      + 9 x42 + 3 x43 + 5 x44 - 5 x45 - 3 x46 + 7 x47 + 6 x48 + 4 x49 - 7 x50
      + 7 x51 - 2 x52 + 5 x53 - 10 x54 + x55 + x56 - 5 x58 - x59 + 7 x60 + 8 x61
      + x62 - x63 - 8 x64 + [ - 16 x0*x4 + 18 x0*x6 - 18 x0*x8 + 8 x0*x16
      - 2 x0*x29 + 6 x0*x34 - 18 x0*x36 + 18 x0*x58 + 18 x0*x61 - 18 x0*x62
      + 12 x1*x3 + 4 x1*x11 + 4 x1*x20 + 4 x1*x21 + 2 x1*x22 + 8 x1*x23
      - 2 x1*x28 - 4 x1*x33 - 20 x1*x51 - 8 x1*x57 + 18 x2*x11 + 2 x2*x21
      - 18 x2*x28 - 14 x2*x29 - 4 x2*x30 + 4 x2*x38 - 10 x2*x48 + 8 x2*x49
      + 12 x2*x53 + 12 x2*x56 - 14 x3*x10 - 18 x3*x16 - 14 x3*x35 - 8 x3*x36
      + 6 x3*x40 + 20 x3*x44 - 8 x3*x55 - 8 x3*x56 - 6 x3*x59 + 6 x4*x5
      + 4 x4*x14 - 2 x4*x17 + 10 x4*x18 - 6 x4*x27 + 12 x4*x32 - 10 x4*x36
      + 8 x4*x56 + 4 x4*x59 + 16 x5*x8 - 8 x5*x17 - 6 x5*x24 + 2 x5*x28
      - 6 x5*x29 - 14 x5*x35 - 4 x5*x48 - 16 x5*x57 - 2 x5*x61 - 6 x6*x15
      - 2 x6*x17 - 10 x6*x18 + 16 x6*x26 - 6 x6*x28 - 16 x6*x29 - 20 x6*x37
      - 20 x6*x52 + 16 x6*x54 - 20 x7*x11 - 8 x7*x18 + 12 x7*x19 + 16 x7*x22
      - 12 x7*x26 + 16 x7*x29 + 4 x7*x36 + 18 x7*x48 + 14 x7*x51 + 2 x7*x64
      + 14 x8*x23 - 20 x8*x25 + 4 x8*x30 - 8 x8*x36 + 4 x8*x39 - 12 x8*x40
      - 18 x8*x63 - 8 x8*x64 + 14 x9*x12 - 12 x9*x26 - 18 x9*x31 - 18 x9*x39
      + 12 x9*x40 - 8 x9*x42 + 8 x9*x47 - 4 x9*x52 - 20 x9*x58 + 6 x9*x61
      + 20 x10*x32 - 18 x10*x43 - 14 x10*x44 + 2 x10*x45 + 20 x10*x49
      + 16 x10*x51 + 20 x10*x53 + 14 x10*x57 + 10 x10*x58 + 12 x11*x24
      - 8 x11*x35 - 12 x11*x43 + 14 x11*x48 - 20 x11*x50 + 8 x11*x51
      + 12 x11*x59 - 18 x12*x13 - 14 x12*x22 + 10 x12*x25 + 4 x12*x26
      - 10 x12*x31 + 10 x12*x33 + 4 x12*x36 - 4 x12*x45 - 12 x12*x64
      - 10 x13*x14 + 10 x13*x17 - 16 x13*x26 - 14 x13*x40 + 2 x13*x41
      - 18 x13*x45 - 8 x13*x47 + 2 x13*x51 - 4 x13*x56 - 4 x14*x22 - 8 x14*x30
      + 4 x14*x49 - 2 x14*x50 - 2 x14*x51 - 8 x14*x54 + 16 x14*x56 - 2 x14*x61
      + 14 x15*x16 + 2 x15*x18 + 10 x15*x19 - 12 x15*x21 + 14 x15*x24
      - 10 x15*x30 + 2 x15*x40 + 4 x15*x41 + 2 x15*x53 - 16 x16*x19 + 2 x16*x23
      - 10 x16*x37 - 12 x16*x41 - 10 x16*x45 + 2 x16*x47 + 4 x16*x54
      + 16 x17*x28 - 18 x17*x30 - 2 x17*x31 - 6 x17*x38 - 14 x17*x42 + 6 x17*x64
      + 14 x18*x27 + 10 x18*x31 + 6 x18*x38 - 2 x18*x43 - 18 x18*x47
      + 12 x18*x55 - 6 x19*x20 - 18 x19*x21 - 10 x19*x24 - 16 x19*x39
      - 20 x19*x46 - 14 x19*x52 + 20 x19*x56 - 10 x20*x25 + 20 x20*x27
      - 8 x20*x37 + 2 x20*x40 - 6 x20*x48 - 6 x20*x50 - 10 x20*x52 + 8 x20*x53
      + 12 x21*x31 - 10 x21*x33 + 20 x21*x58 + 4 x21*x59 + 6 x21*x61 + 2 x21*x63
      - 16 x22*x28 - 14 x22*x32 + 10 x22*x33 - 4 x22*x48 - 8 x22*x60
      + 16 x22*x62 - 18 x23*x39 - 12 x23*x42 - 12 x23*x45 - 14 x23*x55
      + 4 x23*x57 - 4 x23*x60 + 20 x23*x62 + 8 x24*x31 - 6 x24*x32 + 16 x24*x40
      + 4 x24*x44 - 10 x24*x45 - 18 x24*x59 + 8 x25*x26 + 16 x25*x27
      + 20 x25*x33 + 12 x25*x45 + 10 x25*x55 + 2 x25*x60 - 12 x25*x63
      + 12 x26*x36 + 16 x26*x41 - 8 x26*x43 + 20 x26*x55 - 8 x27*x34
      + 12 x27*x39 - 16 x27*x55 - 4 x27*x56 + 4 x27*x63 + 2 x27*x64 - 14 x28*x35
      - 10 x28*x42 + 16 x28*x56 + 18 x28*x64 + 20 x29*x34 + 16 x29*x37
      - 4 x29*x49 + 10 x29*x54 + 10 x29*x59 + 10 x30*x46 + 6 x30*x50
      - 10 x30*x60 + 8 x30*x61 + 6 x30*x62 + 10 x31*x37 + 8 x31*x38 - 4 x31*x54
      - 12 x31*x60 + 12 x32*x33 - 14 x32*x43 + 10 x32*x44 - 2 x32*x45
      - 8 x32*x53 + 4 x32*x57 + 14 x33*x34 - 8 x33*x35 + 18 x33*x38 + 4 x33*x57
      - 18 x34*x39 - 20 x34*x41 + 4 x34*x42 - 16 x34*x45 + 14 x34*x52
      - 16 x34*x58 - 6 x35*x36 - 12 x35*x45 + 8 x35*x58 + 2 x35*x62 + 12 x35*x63
      - 20 x36*x46 - 4 x36*x53 - 18 x37*x39 - 6 x37*x43 + 10 x37*x49
      - 14 x37*x50 - 2 x37*x60 - 2 x38*x46 - 12 x38*x47 + 10 x38*x48 - 2 x38*x62
      + 8 x38*x63 + 12 x39*x42 - 8 x39*x60 + 20 x39*x62 - 10 x40*x42 - 6 x40*x46
      - 10 x40*x54 + 12 x41*x44 + 2 x41*x49 + 20 x41*x55 - 6 x41*x58
      - 14 x41*x60 - 18 x42*x43 + 14 x42*x46 - 12 x42*x64 + 14 x43*x52
      + 4 x43*x54 - 12 x43*x63 + 2 x44*x47 - 2 x44*x54 + 2 x44*x58 - 8 x44*x62
      - 8 x44*x64 + 14 x46*x47 - 6 x46*x51 + 4 x46*x53 - 2 x46*x59 + 14 x47*x50
      - 4 x47*x55 - 16 x47*x63 + 20 x48*x51 + 2 x48*x52 + 12 x48*x62
      - 10 x49*x51 + 2 x49*x52 + 2 x49*x61 - 4 x49*x63 - 14 x50*x52 + 2 x50*x57
      - 10 x50*x59 + 16 x50*x61 - 2 x51*x60 - 6 x52*x60 + 4 x53*x54 - 20 x53*x57
      + 20 x53*x58 + 18 x54*x62 - 20 x55*x58 - 4 x55*x64 + 2 x56*x59
      + 20 x56*x64 - 18 x57*x59 - 16 x57*x61 + 18 x61*x63 ]/2
Subject To
 c0: - x11 + 2 x19 + 2 x24 + 2 x26 + x32 - x37 + 2 x51 + 2 x56 - 2 x57 + x58 = 
     -1
 c1: 2 x2 + 2 x16 + x19 - x26 - 2 x27 + 2 x41 - 2 x47 + 2 x49 - 2 x53 + 2 x60
      = 0
 c2: - x3 + x8 + x12 - x22 - 2 x30 - x38 + x45 + 2 x50 - x51 + 2 x61 = -2
 c3: - x21 + x32 - 2 x35 + x36 + x40 + 2 x41 - x54 + x55 - 2 x59 - x63 = 0
 c4: x8 + 2 x15 + x33 + 2 x35 - 2 x46 - 2 x47 - 2 x49 + 2 x53 + x62 - x63 = 1
 c5: - x3 + 2 x5 + x7 - 2 x14 - x29 + 2 x33 + 2 x37 - 2 x46 - 2 x48 - x56 = 0
 c6: 2 x3 - x5 + 2 x10 + x14 + x23 - 2 x29 + x41 - x57 - x60 - 2 x62 = -1
 c7: 2 x11 + 2 x22 - x28 - x33 - x39 + x43 + x45 + x53 + x56 + x58 = 0
 c8: - x11 + x16 - 2 x27 + 2 x31 + 2 x37 + x55 + 2 x58 - 2 x61 + 2 x62 - 2 x64
      = 0
 c9: 2 x2 + x3 + x14 - 2 x20 + 2 x21 + x22 + 2 x25 - 2 x30 + x41 - 2 x42 = -2
 c10: - x3 - 2 x9 + 2 x18 + 2 x23 + x40 - 2 x44 - x48 - 2 x49 + x52 + x60 = 1
 c11: x5 + 2 x9 + 2 x10 + 2 x12 - 2 x15 + x22 + 2 x40 - x43 - x54 + 2 x55 = -2
 c12: - 2 x4 - 2 x19 - x21 + 2 x42 + x43 + x48 + x51 + x61 + x62 - 2 x63 = 0

Bounds
 0 <= x0 <= 1
 0 <= x1 <= 1
 0 <= x2 <= 1
 0 <= x3 <= 1
 0 <= x4 <= 1
 0 <= x5 <= 1
 0 <= x6 <= 1
 0 <= x7 <= 1
 0 <= x8 <= 1
 0 <= x9 <= 1
 0 <= x10 <= 1
 0 <= x11 <= 1
 0 <= x12 <= 1
 0 <= x13 <= 1
 0 <= x14 <= 1
 0 <= x15 <= 1
 0 <= x16 <= 1
 0 <= x17 <= 1
 0 <= x18 <= 1
 0 <= x19 <= 1
 0 <= x20 <= 1
 0 <= x21 <= 1
 0 <= x22 <= 1
 0 <= x23 <= 1
 0 <= x24 <= 1
 0 <= x25 <= 1
 0 <= x26 <= 1
 0 <= x27 <= 1
 0 <= x28 <= 1
 0 <= x29 <= 1
 0 <= x30 <= 1
 0 <= x31 <= 1
 0 <= x32 <= 1
 0 <= x33 <= 1
 0 <= x34 <= 1
 0 <= x35 <= 1
 0 <= x36 <= 1
 0 <= x37 <= 1
 0 <= x38 <= 1
 0 <= x39 <= 1
 0 <= x40 <= 1
 0 <= x41 <= 1
 0 <= x42 <= 1
 0 <= x43 <= 1
 0 <= x44 <= 1
 0 <= x45 <= 1
 0 <= x46 <= 1
 0 <= x47 <= 1
 0 <= x48 <= 1
 0 <= x49 <= 1
 0 <= x50 <= 1
 0 <= x51 <= 1
 0 <= x52 <= 1
 0 <= x53 <= 1
 0 <= x54 <= 1
 0 <= x55 <= 1
 0 <= x56 <= 1
 0 <= x57 <= 1
 0 <= x58 <= 1
 0 <= x59 <= 1
 0 <= x60 <= 1
 0 <= x61 <= 1
 0 <= x62 <= 1
 0 <= x63 <= 1
 0 <= x64 <= 1

Binaries
 x0 x1 x2 x3 x4 x5 x6 x7 x8 x9 x10 x11 x12 x13 x14 x15 x16 x17 x18 x19 x20 x21
 x22 x23 x24 x25 x26 x27 x28 x29 x30 x31 x32 x33 x34 x35 x36 x37 x38 x39 x40 x41
 x42 x43 x44 x45 x46 x47 x48 x49 x50 x51 x52 x53 x54 x55 x56 x57 x58 x59 x60 x61
 x62 x63 x64
End
